General
   SYSTEM = Mo S
     PREC = Med
#     ENCUT = 400 eV
    ISPIN = 1
   ISTART = 0
   ICHARG = 1
      GGA = PE

Dos Related values
     NPAR = 4
   ISMEAR = 0
    SIGMA = 0.1
#    LORBIT = 11

Electronic relaxation
#     IALGO = 38
     ALGO = Fast
   NELMIN = 4
     NELM = 80
    EDIFF = 1E-6

#For IBRION = 0,POTIM gives the time step (in fs) in all ab-initio Molecular Dynamics runs
Molecular Dynamics
     ISYM = 0
   IBRION = 0
      NSW = 5000
    POTIM = 1
    SMASS = -3     #NVE
   NBLOCK = 1       # XDATCAR contains positions of each step
#NBLOCK controls how often the kinetic energy is scaled if SMASS=-1.

Writing Flag
   NWRITE = 1
    LWAVE = .TRUE.
   LCHARG = .FALSE.

#van der Waals，
VDW-D2
     LVDW = .TRUE.
  VDW_C6 =   24.67  5.57  81.24
  VDW_R0 =   1.639  1.683  1.7721
  
