SYSTEM = Mo S
ISTART =0
#ICHARG = 1
ISMEAR = 0
SIGMA = 0.1
NSW = 0
NPAR = 4
PREC = Accurate   # Precision large enough for accurte descripiton of the wavefunction
EDIFF = 1E-6       # well converged electronic structure
LWAVE = .TRUE.     # We need the WAVECARs
LCHARG = .FALSE.
LORBIT = 11         # we will need PROCAR to analyze the results
NELM = 120        # large enoQSTATuth so that the electronic structure can converge the require precision